[2026-03-23T13:39:05.947Z] Pipeline "set_exp_2_exp_2_n026_c007_g001" → 2026_03_23_13_39_05_set_exp_2_exp_2_n026_c007_g001_max.sol
Set parameter WLSAccessID
Set parameter WLSSecret
Set parameter LicenseID to value 2792458
Set parameter LogFile to value "gurobi.log"
Using license file /root/gurobi.lic
Academic license 2792458 - for non-commercial use only - registered to an___@studenti.unipg.it

Gurobi Optimizer version 13.0.1 build v13.0.1rc0 (linux64 - "Ubuntu 24.04.4 LTS")
Copyright (c) 2026, Gurobi Optimization, LLC

Warning: Duplicate section found (read 'binary') - Is a variable name equal to an LP file format keyword?
Warning: Duplicate section found (read 'binary') - Is a variable name equal to an LP file format keyword?
Warning: Duplicate section found (read 'binary') - Is a variable name equal to an LP file format keyword?
Warning: Duplicate section found (read 'binary') - Is a variable name equal to an LP file format keyword?
Warning: Duplicate section found (read 'binary') - Is a variable name equal to an LP file format keyword?
Warning: Duplicate section found (read 'binary') - Is a variable name equal to an LP file format keyword?
Warning: Duplicate section found (read 'binary') - Is a variable name equal to an LP file format keyword?
Warning: Duplicate section found (read 'binary') - Is a variable name equal to an LP file format keyword?
Warning: Duplicate section found (read 'binary') - Is a variable name equal to an LP file format keyword?
Warning: Duplicate section found (read 'binary') - Is a variable name equal to an LP file format keyword?
Warning: Further warnings of this type will be omitted.
Read LP format model from file /root/bgw/data/uploads/2026_03_23_13_39_05_set_exp_2_exp_2_n026_c007_g001_max.lp
Reading time = 0.01 seconds
: 5957 rows, 507 columns, 17752 nonzeros

Using Gurobi shared library /opt/gurobi1301/linux64/lib/libgurobi.so.13.0.1

CPU model: AMD EPYC-Genoa Processor, instruction set [SSE2|AVX|AVX2|AVX512]
Thread count: 16 physical cores, 16 logical processors, using up to 16 threads

Academic license 2792458 - for non-commercial use only - registered to an___@studenti.unipg.it
Optimize a model with 5957 rows, 507 columns and 17752 nonzeros (Max)
Model fingerprint: 0x252a5a3c
Model has 7 linear objective coefficients
Variable types: 33 continuous, 474 integer (474 binary)
Coefficient statistics:
  Matrix range     [1e+00, 3e+01]
  Objective range  [1e+00, 1e+00]
  Bounds range     [1e+00, 1e+00]
  RHS range        [1e+00, 3e+01]

Found heuristic solution: objective 7.0000000
Presolve removed 706 rows and 150 columns
Presolve time: 0.02s
Presolved: 5251 rows, 357 columns, 16052 nonzeros
Variable types: 0 continuous, 357 integer (344 binary)
Found heuristic solution: objective 9.0000000

Root relaxation: objective 2.800000e+01, 581 iterations, 0.04 seconds (0.05 work units)

    Nodes    |    Current Node    |     Objective Bounds      |     Work
 Expl Unexpl |  Obj  Depth IntInf | Incumbent    BestBd   Gap | It/Node Time

     0     0   28.00000    0   85    9.00000   28.00000   211%     -    0s
H    0     0                      11.0000000   28.00000   155%     -    0s
H    0     0                      15.0000000   28.00000  86.7%     -    0s
H    0     0                      17.0000000   28.00000  64.7%     -    0s
H    0     0                      18.0000000   28.00000  55.6%     -    0s
     0     0   28.00000    0   92   18.00000   28.00000  55.6%     -    0s
     0     0   28.00000    0   91   18.00000   28.00000  55.6%     -    0s
     0     0   28.00000    0   84   18.00000   28.00000  55.6%     -    0s
H    0     0                      19.0000000   28.00000  47.4%     -    0s
H    0     0                      20.0000000   28.00000  40.0%     -    0s
H    0     0                      21.0000000   28.00000  33.3%     -    0s
     0     0   28.00000    0   84   21.00000   28.00000  33.3%     -    0s
     0     0   28.00000    0   80   21.00000   28.00000  33.3%     -    0s
     0     0   28.00000    0   80   21.00000   28.00000  33.3%     -    0s
     0     0   28.00000    0   80   21.00000   28.00000  33.3%     -    0s
     0     0   28.00000    0   80   21.00000   28.00000  33.3%     -    0s
     0     0   28.00000    0   80   21.00000   28.00000  33.3%     -    0s
     0     0   28.00000    0   62   21.00000   28.00000  33.3%     -    0s
     0     0   28.00000    0   81   21.00000   28.00000  33.3%     -    1s
     0     0   28.00000    0   74   21.00000   28.00000  33.3%     -    1s
     0     0   28.00000    0   77   21.00000   28.00000  33.3%     -    1s
     0     0   28.00000    0   75   21.00000   28.00000  33.3%     -    1s
     0     0   28.00000    0   75   21.00000   28.00000  33.3%     -    1s
     0     0   28.00000    0   69   21.00000   28.00000  33.3%     -    1s
     0     2   28.00000    0   69   21.00000   28.00000  33.3%     -    1s
  2024   750   23.95833   20   54   21.00000   27.77778  32.3%   177    5s
  6016  1324   22.83755   15   73   21.00000   25.93750  23.5%   214   10s
  9305  1069   22.83028   18   98   21.00000   24.88426  18.5%   232   15s
 13084     8 infeasible   27        21.00000   22.97917  9.42%   242   20s

Cutting planes:
  Cover: 72
  Inf proof: 107

Explored 13119 nodes (3176526 simplex iterations) in 20.58 seconds (40.50 work units)
Thread count was 16 (of 16 available processors)

Solution count 9: 21 20 19 ... 7

Optimal solution found (tolerance 1.00e-04)
Best objective 2.100000000000e+01, best bound 2.100000000000e+01, gap 0.0000%

Wrote result file '/root/bgw/data/results/2026_03_23_13_39_05_set_exp_2_exp_2_n026_c007_g001_max.sol'

